db/data/2743131359230961822129705991051781647.z3.out
sat
-------------------
1246.322656354
